p tw 109 119
1 2
2 22
3 13
3 29
4 5
5 6
6 7
7 8
8 11
9 10
10 11
11 12
13 14
14 15
14 11
15 16
16 17
17 18
17 21
18 19
19 20
20 21
21 23
22 33
23 24
24 25
25 26
26 27
27 28
28 11
29 30
30 31
31 32
31 79
32 34
33 44
34 35
35 36
36 37
37 38
38 39
38 48
39 40
40 41
41 42
42 43
43 45
44 55
45 46
46 47
47 11
48 49
49 50
50 51
51 52
52 53
53 54
54 56
55 66
56 57
57 58
58 59
59 60
60 61
61 62
62 63
63 64
64 65
65 67
66 77
66 13
67 68
68 69
69 70
70 71
71 72
72 73
73 74
74 75
75 76
76 78
77 88
78 11
79 80
80 81
80 9
81 82
82 83
82 108
83 84
84 85
85 86
85 5
86 87
87 89
88 99
88 13
89 90
90 91
90 94
91 92
92 93
93 94
94 95
95 96
96 97
97 98
98 100
99 3
100 101
101 102
102 103
103 104
104 105
105 106
106 107
107 5
108 109
109 4
